Rodando pra 1h

Optimize a model with 360087 rows, 539172 columns and 13282111 nonzeros
Coefficient statistics:
  Matrix range    [1e+00, 1e+04]
  Objective range [2e-01, 2e-01]
  Bounds range    [1e+00, 1e+04]
  RHS range       [1e+00, 1e+04]
Presolve removed 1 rows and 1 columns (presolve time = 6s) ...
Presolve removed 1 rows and 1 columns (presolve time = 15s) ...
Presolve removed 2 rows and 2 columns (presolve time = 21s) ...
Presolve removed 2 rows and 2 columns (presolve time = 30s) ...
Presolve removed 2 rows and 2 columns (presolve time = 32s) ...
Presolve removed 2 rows and 2 columns (presolve time = 36s) ...
Presolve removed 2 rows and 2 columns (presolve time = 42s) ...
Presolve removed 2 rows and 2 columns (presolve time = 45s) ...
Presolve removed 2 rows and 2 columns (presolve time = 51s) ...
Presolve removed 2 rows and 2 columns (presolve time = 57s) ...
Presolve removed 2 rows and 2 columns (presolve time = 62s) ...
Presolve removed 2 rows and 2 columns (presolve time = 67s) ...
Presolve removed 2 rows and 2 columns (presolve time = 72s) ...
Presolve removed 2 rows and 2 columns (presolve time = 76s) ...
Presolve removed 2 rows and 2 columns (presolve time = 81s) ...
Presolve removed 2 rows and 2 columns (presolve time = 86s) ...
Presolve removed 2 rows and 2 columns (presolve time = 91s) ...
Presolve removed 2 rows and 2 columns (presolve time = 96s) ...
Presolve removed 2 rows and 2 columns (presolve time = 101s) ...
Presolve removed 2 rows and 2 columns (presolve time = 105s) ...
Presolve removed 2 rows and 2 columns (presolve time = 110s) ...
Presolve removed 2 rows and 2 columns (presolve time = 115s) ...
Presolve removed 2 rows and 2 columns (presolve time = 120s) ...
Presolve removed 2 rows and 2 columns (presolve time = 125s) ...
Presolve removed 2 rows and 2 columns (presolve time = 130s) ...
Presolve removed 2 rows and 2 columns (presolve time = 135s) ...
Presolve removed 2 rows and 2 columns (presolve time = 140s) ...
Presolve removed 2 rows and 2 columns (presolve time = 148s) ...
Presolve removed 2 rows and 2 columns (presolve time = 150s) ...
Presolve removed 2 rows and 2 columns (presolve time = 160s) ...
Presolve removed 2 rows and 2 columns (presolve time = 163s) ...
Presolve removed 2 rows and 2 columns (presolve time = 182s) ...
Presolve removed 2 rows and 2 columns
Presolve time: 181.55s
Presolved: 360085 rows, 539170 columns, 13282099 nonzeros
Variable types: 359400 continuous, 179770 integer (179764 binary)
Optimize a model with 360085 rows, 539170 columns and 13282099 nonzeros
Coefficient statistics:
  Matrix range    [1e+00, 1e+04]
  Objective range [2e-01, 2e-01]
  Bounds range    [1e+00, 1e+04]
  RHS range       [1e+00, 2e+04]
Presolve removed 0 rows and 0 columns (presolve time = 6s) ...
Presolved: 360085 rows, 539170 columns, 13282099 nonzeros


Root simplex log...

Iteration    Objective       Primal Inf.    Dual Inf.      Time
       0    0.0000000e+00   1.810585e+03   0.000000e+00    224s
    1247    0.0000000e+00   0.000000e+00   0.000000e+00    225s

Root relaxation: objective 0.000000e+00, 1247 iterations, 12.15 seconds

    Nodes    |    Current Node    |     Objective Bounds      |     Work
 Expl Unexpl |  Obj  Depth IntInf | Incumbent    BestBd   Gap | It/Node Time

     0     0    0.00000    0  621          -    0.00000      -     - 3600s

Explored 0 nodes (155231 simplex iterations) in 3600.50 seconds
Thread count was 1 (of 4 available processors)

Time limit reached
Best objective -, best bound 0.000000000000e+00, gap -
Tempo: 3595.3 segundos

Error code = 10004
Var::get
